<number of tasks>
32

<cycle time>
2357

<task times>
1 458
2 276
3 520
4 1400
5 352
6 196
7 214
8 456
9 646
10 512
11 408
12 262
13 544
14 202
15 458
16 694
17 616
18 678
19 328
20 324
21 100
22 352
23 544
24 500
25 382
26 858
27 388
28 352
29 428
30 238
31 258
32 196

<precedence relations>
1,5
2,6
3,9
4,15
5,6
6,7
6,8
6,9
7,21
8,21
9,10
9,11
10,16
11,12
12,13
13,14
13,15
14,16
14,17
15,17
16,18
17,19
18,21
19,20
20,21
21,22
21,23
21,24
22,25
23,32
24,32
25,26
26,27
27,28
28,29
29,30
30,31
31,32

<setup times forward>
1,2:45
1,3:45
2,1:45
2,4:45
2,5:45
3,1:45
3,4:45
3,5:45
3,7:29
3,8:62
3,9:62
4,2:45
4,3:45
4,6:45
4,7:16
4,8:17
4,9:17
4,10:17
4,11:17
4,12:17
4,13:16
4,14:16
4,15:11
4,16:16
4,18:16
5,2:45
5,3:45
5,6:45
6,4:45
6,7:29
6,8:62
6,9:62
7,3:29
7,4:16
7,8:33
7,9:33
7,10:33
7,11:33
7,12:33
7,15:5
7,17:5
7,19:5
7,20:5
7,21:5
8,3:62
8,4:17
8,7:33
8,13:33
8,14:33
8,15:28
8,16:33
8,17:28
8,18:33
8,19:28
8,20:28
8,21:28
9,4:17
9,7:33
10,4:17
10,7:33
10,13:33
10,14:33
10,15:28
10,16:33
10,17:28
10,19:28
10,20:28
11,4:17
11,7:33
12,4:17
12,7:33
12,13:33
13,4:16
13,8:33
13,10:33
13,15:5
14,4:16
14,8:33
14,10:33
14,15:5
14,17:5
15,7:5
15,8:28
15,10:28
15,14:5
15,16:5
15,18:5
16,4:16
16,8:33
16,15:5
16,17:5
16,19:5
16,20:5
17,7:5
17,8:28
17,10:28
17,16:5
17,18:5
18,4:16
18,8:33
18,15:5
18,17:5
18,19:5
18,20:5
18,21:5
19,7:5
19,8:28
19,10:28
19,16:5
19,18:5
20,7:5
20,8:28
20,10:28
20,16:5
20,18:5
21,23:36
21,24:36
22,23:36
22,24:36
22,25:36
23,22:36
23,27:23
23,28:23
23,29:23
23,30:23
23,31:23
23,32:23
24,22:36
24,27:23
24,28:23
24,29:23
24,30:23
24,31:23
24,32:23
26,27:23
27,23:23
27,24:23
28,23:23
28,24:23
29,23:23
29,24:23
30,23:23
30,24:23
31,23:23
31,24:23

<setup times backward>
1,1:25
1,4:25
2,1:70
2,2:25
2,3:25
2,4:70
2,5:70
3,1:70
3,2:25
3,3:25
3,4:70
3,5:70
3,6:25
3,7:54
3,8:87
4,1:25
4,4:25
4,5:25
4,7:9
4,8:42
4,9:42
4,10:42
4,11:42
4,12:42
4,13:9
4,14:9
4,16:9
4,18:9
5,1:25
5,4:25
5,5:25
6,1:70
6,2:25
6,3:25
6,4:70
6,5:70
6,6:25
7,1:41
7,4:41
7,5:41
7,7:25
7,8:58
7,9:58
7,10:58
7,11:58
7,12:58
7,13:25
7,14:25
7,15:30
7,16:25
7,17:30
7,18:25
7,19:30
7,20:30
8,1:8
8,4:8
8,5:8
8,8:25
8,9:25
8,10:25
8,11:25
8,12:25
9,1:8
9,4:8
9,5:8
9,8:25
9,9:25
10,1:8
10,4:8
10,5:8
10,8:25
10,9:25
10,10:25
10,11:25
10,12:25
11,1:8
11,4:8
11,5:8
11,8:25
11,9:25
11,10:25
11,11:25
12,1:8
12,4:8
12,5:8
12,8:25
12,9:25
12,10:25
12,11:25
12,12:25
13,1:41
13,4:41
13,5:41
13,7:25
13,8:58
13,9:58
13,10:58
13,11:58
13,12:58
13,13:25
14,1:41
14,4:41
14,5:41
14,7:25
14,8:58
14,9:58
14,10:58
14,11:58
14,12:58
14,13:25
14,14:25
14,15:30
15,1:36
15,4:36
15,5:36
15,7:20
15,8:53
15,9:53
15,10:53
15,11:53
15,12:53
15,13:20
15,14:20
15,15:25
15,16:20
15,18:20
16,1:41
16,4:41
16,5:41
16,7:25
16,8:58
16,9:58
16,10:58
16,11:58
16,12:58
16,13:25
16,14:25
16,15:30
16,16:25
16,17:30
16,19:30
16,20:30
17,1:36
17,4:36
17,5:36
17,7:20
17,8:53
17,9:53
17,10:53
17,11:53
17,12:53
17,13:20
17,14:20
17,15:25
17,16:20
17,17:25
17,18:20
18,1:41
18,4:41
18,5:41
18,7:25
18,8:58
18,9:58
18,10:58
18,11:58
18,12:58
18,13:25
18,14:25
18,15:30
18,16:25
18,17:30
18,18:25
18,19:30
18,20:30
19,1:36
19,4:36
19,5:36
19,7:20
19,8:53
19,9:53
19,10:53
19,11:53
19,12:53
19,13:20
19,14:20
19,15:25
19,16:20
19,17:25
19,18:20
19,19:25
20,1:36
20,4:36
20,5:36
20,7:20
20,8:53
20,9:53
20,10:53
20,11:53
20,12:53
20,13:20
20,14:20
20,15:25
20,16:20
20,17:25
20,18:20
20,19:25
20,20:25
21,1:36
21,4:36
21,5:36
21,7:20
21,8:53
21,9:53
21,10:53
21,11:53
21,12:53
21,13:20
21,14:20
21,15:25
21,16:20
21,17:25
21,18:20
21,19:25
21,20:25
21,21:25
22,1:36
22,4:36
22,5:36
22,7:20
22,8:53
22,9:53
22,10:53
22,11:53
22,12:53
22,13:20
22,14:20
22,15:25
22,16:20
22,17:25
22,18:20
22,19:25
22,20:25
22,21:25
22,22:25
22,23:61
22,24:61
23,8:17
23,9:17
23,10:17
23,11:17
23,12:17
23,23:25
23,24:25
23,25:25
23,26:25
23,27:2
23,28:2
23,29:2
23,30:2
23,31:2
24,8:17
24,9:17
24,10:17
24,11:17
24,12:17
24,23:25
24,24:25
24,25:25
24,26:25
24,27:2
24,28:2
24,29:2
24,30:2
24,31:2
25,8:17
25,9:17
25,10:17
25,11:17
25,12:17
25,23:25
25,24:25
25,25:25
26,8:17
26,9:17
26,10:17
26,11:17
26,12:17
26,23:25
26,24:25
26,25:25
26,26:25
27,1:23
27,4:23
27,5:23
27,7:7
27,8:40
27,9:40
27,10:40
27,11:40
27,12:40
27,13:7
27,14:7
27,15:12
27,16:7
27,17:12
27,18:7
27,19:12
27,20:12
27,21:12
27,22:12
27,23:48
27,24:48
27,25:48
27,26:48
27,27:25
28,1:23
28,4:23
28,5:23
28,7:7
28,8:40
28,9:40
28,10:40
28,11:40
28,12:40
28,13:7
28,14:7
28,15:12
28,16:7
28,17:12
28,18:7
28,19:12
28,20:12
28,21:12
28,22:12
28,23:48
28,24:48
28,25:48
28,26:48
28,27:25
28,28:25
29,1:23
29,4:23
29,5:23
29,7:7
29,8:40
29,9:40
29,10:40
29,11:40
29,12:40
29,13:7
29,14:7
29,15:12
29,16:7
29,17:12
29,18:7
29,19:12
29,20:12
29,21:12
29,22:12
29,23:48
29,24:48
29,25:48
29,26:48
29,27:25
29,28:25
29,29:25
30,1:23
30,4:23
30,5:23
30,7:7
30,8:40
30,9:40
30,10:40
30,11:40
30,12:40
30,13:7
30,14:7
30,15:12
30,16:7
30,17:12
30,18:7
30,19:12
30,20:12
30,21:12
30,22:12
30,23:48
30,24:48
30,25:48
30,26:48
30,27:25
30,28:25
30,29:25
30,30:25
31,1:23
31,4:23
31,5:23
31,7:7
31,8:40
31,9:40
31,10:40
31,11:40
31,12:40
31,13:7
31,14:7
31,15:12
31,16:7
31,17:12
31,18:7
31,19:12
31,20:12
31,21:12
31,22:12
31,23:48
31,24:48
31,25:48
31,26:48
31,27:25
31,28:25
31,29:25
31,30:25
31,31:25
32,1:23
32,4:23
32,5:23
32,7:7
32,8:40
32,9:40
32,10:40
32,11:40
32,12:40
32,13:7
32,14:7
32,15:12
32,16:7
32,17:12
32,18:7
32,19:12
32,20:12
32,21:12
32,22:12
32,23:48
32,24:48
32,25:48
32,26:48
32,27:25
32,28:25
32,29:25
32,30:25
32,31:25
32,32:25

<end>

<optimal SALBP-1 value>
7


<rand seed>
467321153

